NAME : random_12
COMMENT : 50 random nodes
TYPE : TSP
DIMENSION : 50
EDGE_WEIGHT_TYPE : EUC_2D
NODE_COORD_SECTION
1 953 204
2 847 740
3 532 926
4 384 448
5 986 438
6 571 28
7 793 558
8 782 100
9 479 307
10 377 852
11 546 514
12 134 107
13 140 265
14 453 940
15 345 518
16 546 488
17 141 383
18 448 660
19 485 799
20 796 229
21 587 658
22 31 267
23 30 25
24 357 134
25 129 123
26 166 740
27 451 327
28 987 358
29 551 944
30 787 286
31 12 634
32 529 858
33 854 211
34 561 995
35 841 386
36 742 388
37 230 635
38 524 937
39 610 960
40 456 787
41 14 147
42 947 174
43 459 129
44 865 304
45 11 36
46 257 238
47 246 900
48 715 130
49 445 622
50 127 846
EOF